Route #1: 1 6 29 14 59 13 23 55 1
Route #2: 1 49 10 26 22 64 16 57 56 19 1
Route #3: 1 54 40 43 45 41 65 37 36 5 15 1
Route #4: 1 52 25 30 60 42 28 11 67 33 1
Route #5: 1 46 53 38 66 24 9 44 1
Route #6: 1 32 34 48 27 3 17 1
Route #7: 1 35 7 2 50 20 21 1
Route #8: 1 47 51 12 8 18 1
Route #9: 1 63 62 58 31 4 61 1
Route #10: 1 39 1
cost 1274
